sing20200517.12
TTAA 67121 48698
99004 30236 24504 00059 29640 16502 92752 24237 27009
85489 19419 22509 70140 11025 30003 50588 02367 03010
40762 12363 06503 30975 27531 09017 25104 36532 00507
20255 49350 35014 15436 65360 35029 10671 83548 04026
88999
77999=
TTCC 67122 48698
70866 77361 09537 50067 65375 11020 30379 59779 12516
20640 49383 02516
88813 91329 08026
77999=
TTDD 6712/ 48698
11813 91329 22735 86356 33707 76961 44697 77561 55637
68577 66603 65376 77528 68372 88454 63176 99360 66774
11345 63576 22321 64376 33268 53781 44253 55380 55224
49384 66214 50982 77181 50183 88170 46985
21212 11823 08526 22720 09039 33701 09537 44647 07530
55602 12519 66576 12519 77560 09518 88542 09015 99515
08522 11493 12020 22447 07523 33395 10031 44356 07533
55334 07034 66323 08034 77304 13016 88282 05513 99278
05010 11272 10504 22253 19510 33240 21510 44224 29001
55218 00510 66215 00513 77210 03015 88196 02016 99170
07029=
